% Logging successfully configured
%%%mzn-stat: initTime=0.003488749
%%%mzn-stat: objective=646
%%%mzn-stat: nodes=176
%%%mzn-stat: restarts=0
%%%mzn-stat: peakDepth=176
%%%mzn-stat: solveTime=0.000599686
%%%mzn-stat: variables=377
%%%mzn-stat: propagators=257
%%%mzn-stat: failures=0
%%%mzn-stat: propagations=879
%%%mzn-stat: nogoods=0
%%%mzn-stat: numAtomicConstraintsPropagated=0
%%%mzn-stat: allDifferentNumber1PropagationsTotal=34
%%%mzn-stat: allDifferentNumber1PropagationsThatFoundConflict=0
%%%mzn-stat: allDifferentNumber1PropagationsThatPruned=17
%%%mzn-stat: allDifferentNumber1TotalValuesPruned=72
%%%mzn-stat: allDifferentNumber1TotalHallSetSizeConflict=0
%%%mzn-stat: allDifferentNumber1NumberOfConflicts=0
%%%mzn-stat: allDifferentNumber1MaxHallSetSizeConflict=0
%%%mzn-stat: allDifferentNumber1TotalPruningHallSetSize=77
%%%mzn-stat: allDifferentNumber1NumberOfPruningExplanations=72
%%%mzn-stat: allDifferentNumber1MaxPruningHallSetSize=4
%%%mzn-stat: allDifferentNumber1TotalFixedEdgesAtConflict=0
%%%mzn-stat: allDifferentNumber1TotalVarsInvolvedInPruning=72
%%%mzn-stat: allDifferentNumber1MaxValuesPrunedFromSingleVar=1
%%%mzn-stat: allDifferentNumber1TotalSccSizeAtPruning=26
%%%mzn-stat: allDifferentNumber1NumberOfSccPruningCalls=17
%%%mzn-stat: circuitNumber2PropagationsThatFoundConflict=0
%%%mzn-stat: circuitNumber2TotalFixedEdgesAtConflict=0
%%%mzn-stat: circuitNumber2NumberOfConflicts=0
%%%mzn-stat: circuitNumber2PropagationsThatPruned=1
%%%mzn-stat: circuitNumber2PropagationsTotal=18
%%%mzn-stat: AverageConflictSize=0
%%%mzn-stat: NumUnitNogoodsLearned=0
%%%mzn-stat: AverageLearnedNogoodLength=0
%%%mzn-stat: AverageBacktrackAmount=0
%%%mzn-stat: AverageLbd=0
%%%mzn-stat: 2AutonomousSearchNumBackupCalled=160
%%%mzn-stat: 2AutonomousSearchNumPredicatesRemoved=0
%%%mzn-stat: 2AutonomousSearchNumCalls=161
%%%mzn-stat: 2AutonomousSearchNumPredicatesAdded=0
%%%mzn-stat: 2AutonomousSearchAverageSizeOfHeap=0
%%%mzn-stat: 2AutonomousSearchNumAssignedPredicatesEncountered=0
%%%mzn-stat-end
maxleg = 646;
succ = array1d(1..20,[2, 3, 4, 8, 12, 7, 9, 14, 1, 6, 10, 15, 11, 5, 19, 20, 13, 17, 16, 18]);
% time elapsed: 10.23 s
----------
%%%mzn-stat: initTime=0.003488749
%%%mzn-stat: objective=641
%%%mzn-stat: nodes=336
%%%mzn-stat: restarts=0
%%%mzn-stat: peakDepth=176
%%%mzn-stat: solveTime=0.00108634
%%%mzn-stat: variables=377
%%%mzn-stat: propagators=257
%%%mzn-stat: failures=0
%%%mzn-stat: propagations=1339
%%%mzn-stat: nogoods=0
%%%mzn-stat: numAtomicConstraintsPropagated=0
%%%mzn-stat: allDifferentNumber1PropagationsTotal=66
%%%mzn-stat: allDifferentNumber1PropagationsThatFoundConflict=0
%%%mzn-stat: allDifferentNumber1PropagationsThatPruned=33
%%%mzn-stat: allDifferentNumber1TotalValuesPruned=143
%%%mzn-stat: allDifferentNumber1TotalHallSetSizeConflict=0
%%%mzn-stat: allDifferentNumber1NumberOfConflicts=0
%%%mzn-stat: allDifferentNumber1MaxHallSetSizeConflict=0
%%%mzn-stat: allDifferentNumber1TotalPruningHallSetSize=153
%%%mzn-stat: allDifferentNumber1NumberOfPruningExplanations=143
%%%mzn-stat: allDifferentNumber1MaxPruningHallSetSize=4
%%%mzn-stat: allDifferentNumber1TotalFixedEdgesAtConflict=0
%%%mzn-stat: allDifferentNumber1TotalVarsInvolvedInPruning=143
%%%mzn-stat: allDifferentNumber1MaxValuesPrunedFromSingleVar=1
%%%mzn-stat: allDifferentNumber1TotalSccSizeAtPruning=50
%%%mzn-stat: allDifferentNumber1NumberOfSccPruningCalls=33
%%%mzn-stat: circuitNumber2PropagationsThatFoundConflict=0
%%%mzn-stat: circuitNumber2TotalFixedEdgesAtConflict=0
%%%mzn-stat: circuitNumber2NumberOfConflicts=0
%%%mzn-stat: circuitNumber2PropagationsThatPruned=2
%%%mzn-stat: circuitNumber2PropagationsTotal=34
%%%mzn-stat: AverageConflictSize=0
%%%mzn-stat: NumUnitNogoodsLearned=0
%%%mzn-stat: AverageLearnedNogoodLength=0
%%%mzn-stat: AverageBacktrackAmount=0
%%%mzn-stat: AverageLbd=0
%%%mzn-stat: 2AutonomousSearchNumBackupCalled=304
%%%mzn-stat: 2AutonomousSearchNumPredicatesRemoved=0
%%%mzn-stat: 2AutonomousSearchNumCalls=306
%%%mzn-stat: 2AutonomousSearchNumPredicatesAdded=0
%%%mzn-stat: 2AutonomousSearchAverageSizeOfHeap=0
%%%mzn-stat: 2AutonomousSearchNumAssignedPredicatesEncountered=0
%%%mzn-stat-end
maxleg = 641;
succ = array1d(1..20,[2, 3, 4, 8, 12, 7, 9, 14, 1, 6, 10, 16, 11, 5, 17, 19, 18, 20, 15, 13]);
% time elapsed: 10.23 s
----------
%%%mzn-stat: initTime=0.003488749
%%%mzn-stat: objective=614
%%%mzn-stat: nodes=500
%%%mzn-stat: restarts=0
%%%mzn-stat: peakDepth=176
%%%mzn-stat: solveTime=0.001727452
%%%mzn-stat: variables=377
%%%mzn-stat: propagators=257
%%%mzn-stat: failures=1
%%%mzn-stat: propagations=1811
%%%mzn-stat: nogoods=1
%%%mzn-stat: numAtomicConstraintsPropagated=0
%%%mzn-stat: allDifferentNumber1PropagationsTotal=100
%%%mzn-stat: allDifferentNumber1PropagationsThatFoundConflict=0
%%%mzn-stat: allDifferentNumber1PropagationsThatPruned=51
%%%mzn-stat: allDifferentNumber1TotalValuesPruned=217
%%%mzn-stat: allDifferentNumber1TotalHallSetSizeConflict=0
%%%mzn-stat: allDifferentNumber1NumberOfConflicts=0
%%%mzn-stat: allDifferentNumber1MaxHallSetSizeConflict=0
%%%mzn-stat: allDifferentNumber1TotalPruningHallSetSize=244
%%%mzn-stat: allDifferentNumber1NumberOfPruningExplanations=217
%%%mzn-stat: allDifferentNumber1MaxPruningHallSetSize=6
%%%mzn-stat: allDifferentNumber1TotalFixedEdgesAtConflict=0
%%%mzn-stat: allDifferentNumber1TotalVarsInvolvedInPruning=215
%%%mzn-stat: allDifferentNumber1MaxValuesPrunedFromSingleVar=2
%%%mzn-stat: allDifferentNumber1TotalSccSizeAtPruning=84
%%%mzn-stat: allDifferentNumber1NumberOfSccPruningCalls=51
%%%mzn-stat: circuitNumber2PropagationsThatFoundConflict=1
%%%mzn-stat: circuitNumber2TotalFixedEdgesAtConflict=15
%%%mzn-stat: circuitNumber2NumberOfConflicts=1
%%%mzn-stat: circuitNumber2PropagationsThatPruned=4
%%%mzn-stat: circuitNumber2PropagationsTotal=52
%%%mzn-stat: AverageConflictSize=4
%%%mzn-stat: NumUnitNogoodsLearned=0
%%%mzn-stat: AverageLearnedNogoodLength=18
%%%mzn-stat: AverageBacktrackAmount=0
%%%mzn-stat: AverageLbd=10
%%%mzn-stat: 2AutonomousSearchNumBackupCalled=452
%%%mzn-stat: 2AutonomousSearchNumPredicatesRemoved=0
%%%mzn-stat: 2AutonomousSearchNumCalls=455
%%%mzn-stat: 2AutonomousSearchNumPredicatesAdded=45
%%%mzn-stat: 2AutonomousSearchAverageSizeOfHeap=0.0989010989010989
%%%mzn-stat: 2AutonomousSearchNumAssignedPredicatesEncountered=45
%%%mzn-stat-end
maxleg = 614;
succ = array1d(1..20,[2, 3, 4, 8, 14, 7, 9, 12, 1, 6, 10, 19, 11, 16, 5, 20, 13, 17, 15, 18]);
% time elapsed: 10.23 s
----------
%%%mzn-stat: initTime=0.003488749
%%%mzn-stat: objective=583
%%%mzn-stat: nodes=653
%%%mzn-stat: restarts=0
%%%mzn-stat: peakDepth=176
%%%mzn-stat: solveTime=0.002266135
%%%mzn-stat: variables=377
%%%mzn-stat: propagators=257
%%%mzn-stat: failures=1
%%%mzn-stat: propagations=2271
%%%mzn-stat: nogoods=1
%%%mzn-stat: numAtomicConstraintsPropagated=0
%%%mzn-stat: allDifferentNumber1PropagationsTotal=133
%%%mzn-stat: allDifferentNumber1PropagationsThatFoundConflict=0
%%%mzn-stat: allDifferentNumber1PropagationsThatPruned=67
%%%mzn-stat: allDifferentNumber1TotalValuesPruned=286
%%%mzn-stat: allDifferentNumber1TotalHallSetSizeConflict=0
%%%mzn-stat: allDifferentNumber1NumberOfConflicts=0
%%%mzn-stat: allDifferentNumber1MaxHallSetSizeConflict=0
%%%mzn-stat: allDifferentNumber1TotalPruningHallSetSize=363
%%%mzn-stat: allDifferentNumber1NumberOfPruningExplanations=286
%%%mzn-stat: allDifferentNumber1MaxPruningHallSetSize=14
%%%mzn-stat: allDifferentNumber1TotalFixedEdgesAtConflict=0
%%%mzn-stat: allDifferentNumber1TotalVarsInvolvedInPruning=277
%%%mzn-stat: allDifferentNumber1MaxValuesPrunedFromSingleVar=3
%%%mzn-stat: allDifferentNumber1TotalSccSizeAtPruning=135
%%%mzn-stat: allDifferentNumber1NumberOfSccPruningCalls=67
%%%mzn-stat: circuitNumber2PropagationsThatFoundConflict=1
%%%mzn-stat: circuitNumber2TotalFixedEdgesAtConflict=15
%%%mzn-stat: circuitNumber2NumberOfConflicts=1
%%%mzn-stat: circuitNumber2PropagationsThatPruned=4
%%%mzn-stat: circuitNumber2PropagationsTotal=68
%%%mzn-stat: AverageConflictSize=4
%%%mzn-stat: NumUnitNogoodsLearned=0
%%%mzn-stat: AverageLearnedNogoodLength=18
%%%mzn-stat: AverageBacktrackAmount=0
%%%mzn-stat: AverageLbd=10
%%%mzn-stat: 2AutonomousSearchNumBackupCalled=589
%%%mzn-stat: 2AutonomousSearchNumPredicatesRemoved=0
%%%mzn-stat: 2AutonomousSearchNumCalls=593
%%%mzn-stat: 2AutonomousSearchNumPredicatesAdded=45
%%%mzn-stat: 2AutonomousSearchAverageSizeOfHeap=0.15177065767284992
%%%mzn-stat: 2AutonomousSearchNumAssignedPredicatesEncountered=90
%%%mzn-stat-end
maxleg = 583;
succ = array1d(1..20,[2, 3, 4, 8, 15, 7, 9, 12, 1, 6, 10, 14, 11, 16, 17, 19, 18, 20, 5, 13]);
% time elapsed: 10.23 s
----------
==========
% time elapsed: 10.41 s
%%%mzn-stat: initTime=0.003488749
%%%mzn-stat: objective=583
%%%mzn-stat: nodes=2035
%%%mzn-stat: restarts=0
%%%mzn-stat: peakDepth=176
%%%mzn-stat: solveTime=0.204980047
%%%mzn-stat: variables=377
%%%mzn-stat: propagators=257
%%%mzn-stat: failures=1384
%%%mzn-stat: propagations=49276
%%%mzn-stat: nogoods=1384
%%%mzn-stat: numAtomicConstraintsPropagated=0
%%%mzn-stat: allDifferentNumber1PropagationsTotal=4836
%%%mzn-stat: allDifferentNumber1PropagationsThatFoundConflict=140
%%%mzn-stat: allDifferentNumber1PropagationsThatPruned=2964
%%%mzn-stat: allDifferentNumber1TotalValuesPruned=17435
%%%mzn-stat: allDifferentNumber1TotalHallSetSizeConflict=834
%%%mzn-stat: allDifferentNumber1NumberOfConflicts=140
%%%mzn-stat: allDifferentNumber1MaxHallSetSizeConflict=15
%%%mzn-stat: allDifferentNumber1TotalPruningHallSetSize=55868
%%%mzn-stat: allDifferentNumber1NumberOfPruningExplanations=17435
%%%mzn-stat: allDifferentNumber1MaxPruningHallSetSize=15
%%%mzn-stat: allDifferentNumber1TotalFixedEdgesAtConflict=1015
%%%mzn-stat: allDifferentNumber1TotalVarsInvolvedInPruning=14094
%%%mzn-stat: allDifferentNumber1MaxValuesPrunedFromSingleVar=6
%%%mzn-stat: allDifferentNumber1TotalSccSizeAtPruning=32340
%%%mzn-stat: allDifferentNumber1NumberOfSccPruningCalls=2964
%%%mzn-stat: circuitNumber2PropagationsThatFoundConflict=920
%%%mzn-stat: circuitNumber2TotalFixedEdgesAtConflict=6632
%%%mzn-stat: circuitNumber2NumberOfConflicts=920
%%%mzn-stat: circuitNumber2PropagationsThatPruned=270
%%%mzn-stat: circuitNumber2PropagationsTotal=2554
%%%mzn-stat: AverageConflictSize=5.96893063583815
%%%mzn-stat: NumUnitNogoodsLearned=1
%%%mzn-stat: AverageLearnedNogoodLength=25.58092485549133
%%%mzn-stat: AverageBacktrackAmount=0
%%%mzn-stat: AverageLbd=4.670520231213873
%%%mzn-stat: 2AutonomousSearchNumBackupCalled=589
%%%mzn-stat: 2AutonomousSearchNumPredicatesRemoved=0
%%%mzn-stat: 2AutonomousSearchNumCalls=593
%%%mzn-stat: 2AutonomousSearchNumPredicatesAdded=581
%%%mzn-stat: 2AutonomousSearchAverageSizeOfHeap=0.15177065767284992
%%%mzn-stat: 2AutonomousSearchNumAssignedPredicatesEncountered=90
%%%mzn-stat-end
